%chk=A1_S1A_H_Opt.chk                                                                  
#P Opt(MaxCycle=60) B3LYP/GenECP Guess(CheckPoint) Geom(ModRedundant) SCF(XQC) Symm(None) Pop(Always)
                                                                                  
A1_S1A_H_Opt                                                                           

-2 3  
 Mo                16.40267900   -5.89893000   53.40490000
 Fe                 8.56583000   -7.47157000   54.66754900
 Fe                11.04088000   -5.82041000   55.20383800
 Fe                10.78052000   -6.84227000   52.64394000
 Fe                11.47857000   -8.46125000   54.79394100
 Fe                14.10022000   -7.81823000   54.25511900
 Fe                13.70173000   -5.24178000   54.79999900
 Fe                13.29460000   -6.14659000   52.20169800
 C                 18.17499900   -2.32690000   54.38307200
 H                 18.67380000   -1.49186000   53.88695100
 H                 17.09450900   -2.22126000   54.21807100
 C                 18.65212100   -3.66728000   53.78224200
 C                 20.18784000   -3.78129000   53.95816000
 H                 20.47081900   -3.42954000   54.95459000
 H                 20.63571000   -3.09962000   53.22934000
 C                 20.73230900   -5.19425000   53.77710000
 H                 20.38437100   -5.65170000   52.84249100
 H                 20.37542900   -5.83397000   54.58900100
 C                 18.30389000   -3.80383000   52.28036100
 O                 17.51884100   -4.80096000   51.97462800
 O                 18.79441100   -3.02109000   51.47269800
 O                 17.95105000   -4.72594000   54.47613100
 C                 12.38892000   -6.71660000   53.87418000
 S                 10.05437000   -7.51561000   56.49607800
 S                 15.55890000   -6.58094000   55.59532900
 S                  9.33316000   -5.28211000   53.62743000
 S                 12.23729000   -4.18862000   56.16407000
 S                 13.31606000   -9.72814000   55.18333800
 S                 14.55674000   -4.23601000   52.87295200
 S                  9.88875000   -8.96284000   53.08525800
 S                 15.10032000   -7.63869000   52.08945100
 S                 11.68278000   -6.29061000   50.58065000
 H                 13.63518000   -2.19009000   49.04254900
 C                 13.29789000   -2.02430000   50.05503800
 H                 13.90911000   -2.63719000   50.72208000
 H                 13.39495000   -0.96655000   50.32265100
 N                 11.89257000   -2.45429000   50.07889900
 H                 11.37061000   -2.33697000   49.22282000
 C                 11.18077000   -2.97399000   51.09194200
 N                 11.62669000   -3.01902000   52.33557100
 H                 11.13639000   -3.61209000   53.00952900
 H                 12.59743000   -2.82329000   52.56454100
 N                  9.90135000   -3.37209000   50.82337200
 H                  9.83473000   -3.93569000   49.98091100
 H                  9.47132000   -3.87760000   51.60546100
 H                  7.93719000    0.30580000   59.39963200
 C                  8.32677000   -1.35329000   60.75550100
 H                  8.28754000   -1.50017000   61.84312100
 H                  7.47787000   -1.90847000   60.33441200
 C                  9.61007000   -1.95118000   60.26453000
 N                 10.77770000   -1.82727000   60.99560900
 C                  9.84150000   -2.69980000   59.13151200
 H                  9.20060000   -3.03073000   58.32741200
 C                 11.68891000   -2.49482000   60.31108900
 H                 12.72280000   -2.63015000   60.59573000
 N                 11.17462000   -3.03948000   59.17609000
 H                 19.10042000   -4.07906000   57.78744900
 C                 18.30604900   -7.44157000   50.75312000
 H                 17.67037000   -6.55533000   50.70415900
 H                 19.20904900   -7.21938000   50.17131000
 C                 18.73710100   -7.76612000   52.15980900
 N                 18.03565000   -7.39484000   53.29950000
 C                 19.84185000   -8.47560000   52.56366000
 H                 20.65015000   -8.91863000   52.00307100
 C                 18.69103100   -7.86173000   54.34962100
 H                 18.41679000   -7.69778000   55.38069900
 N                 19.78811100   -8.53880000   53.94443900
 H                 20.51825000   -8.87240000   54.55617900
 H                  6.39279000   -9.48837000   56.52584800
 C                  6.18384000   -9.49725000   55.45101200
 H                  6.91141000  -10.14668000   54.95518900
 H                  5.18297000   -9.91196000   55.29035900
 S                  6.26502000   -7.78950000   54.73685800
 H                 11.66774000   -3.57947000   58.46719000
 H                 17.92498000   -4.40089000   55.45465900
 C                 18.45115100   -2.26185000   55.90409900
 O                 18.27059900   -3.37689000   56.54267900
 O                 18.81052000   -1.18963000   56.41091200
 C                 22.23554000   -5.26761000   53.78247800
 O                 22.67359900   -6.56494000   53.69237100
 O                 23.02716100   -4.35254000   53.85150900
 H                 15.70246000   -0.19964000   61.49121900
 C                 14.85503000   -0.08300000   60.83200100
 H                 13.91649000   -0.28672000   61.32611100
 H                 14.82126000    0.99109000   60.58261900
 C                 15.05401000   -0.96992000   59.59904100
 H                 14.30570000   -0.72902000   58.83324800
 H                 14.88815000   -2.01498000   59.88291900
 C                 16.45290900   -0.86490000   58.98571000
 H                 16.73139000    0.18397000   58.81005100
 H                 16.47631100   -1.34359000   57.99895100
 C                 17.54847000   -1.52506000   59.83184100
 O                 17.32362900   -2.07836000   60.91101100
 N                 18.80186100   -1.43070000   59.30056000
 H                 19.47188000   -2.06775000   59.71511100
 H                 18.89045900   -1.28631000   58.28551900
 C                 10.65166000    0.00974000   53.34598200
 H                 11.16383000    0.95930000   53.28718900
 H                  9.58645000    0.18512000   53.35805900
 H                 10.90983000   -0.57357000   52.45964100
 C                 11.09571000   -0.67422000   54.65399200
 H                 10.79755000   -1.72921000   54.62929900
 C                 10.40345000   -0.03326000   55.86655000
 H                  9.31111000   -0.09899000   55.78015100
 H                 10.66860000    1.03000000   55.95817200
 H                 10.69418000   -0.53421000   56.79636000
 C                 12.62147000   -0.61316000   54.81589900
 H                 13.14554000   -1.03344000   53.94846000
 H                 12.94763000   -1.17884000   55.69361900
 H                 12.95627000    0.42818000   54.92839100
 H                 13.45512000  -12.23046000   53.18835800
 C                 13.91098000  -11.62092000   52.42192100
 H                 14.71433000  -11.02576000   52.86526900
 H                 14.27962000  -12.23707000   51.59735100
 N                 12.80964000  -10.78270000   51.93928100
 H                 12.11873000  -10.50695000   52.64062100
 C                 12.76462000  -10.12674000   50.78812000
 N                 13.87007000  -10.08278000   49.98968900
 H                 13.75408000   -9.49685000   49.17063100
 H                 14.71704000   -9.84634000   50.49963000
 N                 11.61551000   -9.58083000   50.34769100
 H                 10.84327000   -9.60953000   51.02312900
 H                 11.70401000   -8.62516000   49.97837800
 H                 19.21760900   -8.22374000   61.71241000
 C                 19.59787900   -7.22988000   61.99004000
 H                 20.63697100   -7.35087000   62.31209900
 C                 18.81084100   -6.72180000   63.19310000
 O                 19.34742000   -6.35142000   64.23428300
 C                 19.50488100   -6.23886000   60.79882000
 H                 19.88958900   -5.26683000   61.12785000
 H                 18.45389000   -6.06196000   60.54921000
 C                 20.22933000   -6.66057000   59.50915100
 H                 19.83085100   -7.60980000   59.12073100
 H                 21.30172000   -6.81527000   59.67084100
 C                 20.02557000   -5.72466000   58.30588900
 O                 20.36422900   -6.06638000   57.18164100
 O                 19.41970100   -4.58425000   58.60884100
 N                 17.45980100   -6.71918000   62.99414100
 H                 17.11568100   -6.93505000   62.06673800
 C                 16.53688000   -6.00589000   63.85303900
 H                 15.77224000   -6.69481000   64.23697700
 H                 17.11430900   -5.63753000   64.70391800
 C                 15.82895000   -4.84448000   63.11756900
 H                 16.56778000   -4.09727000   62.80744200
 H                 15.15955000   -4.35667000   63.84006100
 C                 15.03761000   -5.31187000   61.90863000
 C                 13.86998000   -6.07635000   62.06277800
 H                 13.50501000   -6.30194000   63.06407900
 C                 15.47577000   -5.01763000   60.60771900
 H                 16.35533000   -4.39271000   60.47378200
 C                 13.16171000   -6.53643000   60.95163000
 H                 12.25347000   -7.11802000   61.08966800
 C                 14.76794000   -5.48029000   59.49185900
 H                 15.11393000   -5.24380000   58.48939900
 C                 13.60994000   -6.24330000   59.65974000
 H                 13.05906000   -6.59467000   58.79188200
 H                  9.00378000    0.70507000   60.77520000
 C                  8.12695000    0.15613000   60.46509200
 H                  7.28367000    0.45922000   61.06774900
 H                 17.80283900   -8.28786000   50.33425100
 H                 23.64629900   -6.49491000   53.71561100
 H                  9.38552500   -7.23709700   57.62332200

X 33 F
X 34 F
X 35 F
X 36 F
X 46 F
X 58 F
X 59 F
X 60 F
X 69 F
X 70 F
X 71 F
X 72 F
X 82 F
X 83 F
X 84 F
X 85 F
X 97 F
X 98 F
X 99 F
X 100 F
X 111 F
X 112 F
X 113 F
X 114 F
X 120 F
X 124 F
X 125 F
X 126 F
X 132 F
X 133 F
X 134 F
X 140 F
X 141 F
X 142 F
X 157 F
X 158 F
X 159 F
X 160 F 
B 1 2 B                                                                                                    
                                                                                                           
Mo   0                                                                                                     
S    3 1.00                                                                                                
   2.36100000000000      -0.910672024748705                                                                
   1.30900000000000        1.14612089888433                                                                
  0.450000000000000       0.610183433886590                                                                
S    3 1.00                                                                                                
   1.30900000000000      -0.185477909063851                                                                
  0.450000000000000       -1.02303072640616                                                                
  0.168100000000000        1.67206697867620                                                                
S    1 1.00                                                                                                
  4.230000000000000E-002   1.00000000000000                                                                
P    3 1.00                                                                                                
   4.89500000000000      -9.082584906395001E-002                                                           
   1.04400000000000       0.704289865536831                                                                
  0.387700000000000       0.397317949832461                                                                
P    1 1.00                                                                                                
  7.800000000000000E-002   1.00000000000000                                                                
P    1 1.00                                                                                                
  2.470000000000000E-002   1.00000000000000                                                                
D    3 1.00                                                                                                
   2.99300000000000       5.270401829376609E-002                                                           
   1.06300000000000       0.500391272702435                                                                
  0.372100000000000       0.579403056059332                                                                
D    1 1.00                                                                                                
  0.117800000000000        1.00000000000000                                                                
****                                                                                                       
Fe   0                                                                                                     
S    3 1.00                                                                                                
   6.42200000000000      -0.391371139258586                                                                
   1.82600000000000       0.769344841456132                                                                
  0.713500000000000       0.493181437696794                                                                
S    3 1.00                                                                                                
   1.82600000000000      -6.874575142314664E-002                                                           
  0.713500000000000      -0.233692561637600                                                                
  0.102100000000000        1.11324671544387                                                                
S    1 1.00                                                                                                
  3.630000000000000E-002   1.00000000000000                                                                
P    3 1.00                                                                                                
   19.4800000000000      -4.702823696558029E-002                                                           
   2.38900000000000       0.624884100527061                                                                
  0.779500000000000       0.472254207696161                                                                
P    1 1.00                                                                                                
  7.400000000000000E-002   1.00000000000000                                                                
P    1 1.00                                                                                                
  2.200000000000000E-002   1.00000000000000                                                                
D    4 1.00                                                                                                
   37.0800000000000       3.290002242104181E-002                                                           
   10.1000000000000       0.178741826179523                                                                
   3.22000000000000       0.448765748357368                                                                
  0.962800000000000       0.587636124347783                                                                
D    1 1.00                                                                                                
  0.226200000000000        1.00000000000000                                                                
****                                                                                                       
H    0                                                                                                     
S    3 1.00                                                                                                
   18.7311369600000       3.349460433798892E-002                                                           
   2.82539436500000       0.234726953485906                                                                
  0.640121692300000       0.813757326151141                                                                
S    1 1.00                                                                                                
  0.161277758800000        1.00000000000000                                                                
****                                                                                                       
C    0                                                                                                     
S    6 1.00                                                                                                
   3047.52488000000       1.834737131704337E-003                                                           
   457.369518000000       1.403732281303965E-002                                                           
   103.948685000000       6.884262226394978E-002                                                           
   29.2101553000000       0.232184443215682                                                                
   9.28666296000000       0.467941348434683                                                                
   3.16392696000000       0.362311985336561                                                                
SP   3 1.00                                                                                                
   7.86827235000000      -0.119332419774609       6.899906659055292E-002                                   
   1.88128854000000      -0.160854151696183       0.316423960956676                                        
  0.544249258000000        1.14345643784028       0.744308290898092                                        
SP   1 1.00                                                                                                
  0.168714478200000        1.00000000000000        1.00000000000000                                        
D    1 1.00                                                                                                
  0.800000000000000        1.00000000000000                                                                
****                                                                                                       
O    0                                                                                                     
S    6 1.00                                                                                                
   5484.67166000000       1.831074429935815E-003                                                           
   825.234946000000       1.395017219951100E-002                                                           
   188.046958000000       6.844507809760077E-002                                                           
   52.9645000000000       0.232714335991843                                                                
   16.8975704000000       0.470192897983518                                                                
   5.79963534000000       0.358520852987433                                                                
SP   3 1.00                                                                                                
   15.5396162500000      -0.110777549523202       7.087426823162325E-002                                   
   3.59993358600000      -0.148026262699129       0.339752839151594                                        
   1.01376175000000        1.13076701534061       0.727158577324449                                        
SP   1 1.00                                                                                                
  0.270005822600000        1.00000000000000        1.00000000000000                                        
D    1 1.00                                                                                                
  0.800000000000000        1.00000000000000                                                                
****                                                                                                       
S    0                                                                                                     
S    6 1.00                                                                                                
   21917.1000000000       1.869240849098174E-003                                                           
   3301.49000000000       1.423030646408259E-002                                                           
   754.146000000000       6.969623165934613E-002                                                           
   212.711000000000       0.238487108332197                                                                
   67.9896000000000       0.483307219541145                                                                
   23.0515000000000       0.338074153569373                                                                
SP   6 1.00                                                                                                
   423.735000000000      -2.376770498762631E-003  4.061009981965474E-003                                   
   100.710000000000      -3.169300665074201E-002  3.068129986374752E-002                                   
   32.1599000000000      -0.113317023779451       0.130451999420676                                        
   11.8079000000000       5.609001177042625E-002  0.327204998546916                                        
   4.63110000000000       0.592255124284075       0.452850997988936                                        
   1.87025000000000       0.455006095482520       0.256041998862944                                        
SP   3 1.00                                                                                                
   2.61584000000000      -0.250373114158727      -1.451048954674585E-002                                   
  0.922167000000000       6.695676310130402E-002  0.310262776488888                                        
  0.341287000000000        1.05450626906756       0.754482456476169                                        
SP   1 1.00                                                                                                
  0.117167000000000        1.00000000000000        1.00000000000000                                        
D    1 1.00                                                                                                
  0.650000000000000        1.00000000000000                                                                
****                                                                                                       
N    0                                                                                                     
S    6 1.00                                                                                                
   4173.51146000000       1.834772160318956E-003                                                           
   627.457911000000       1.399462700243282E-002                                                           
   142.902093000000       6.858655181192305E-002                                                           
   40.2343293000000       0.232240873040373                                                                
   12.8202129000000       0.469069948081543                                                                
   4.39043701000000       0.360455199062661                                                                
SP   3 1.00                                                                                                
   11.6263618600000      -0.114961181702832       6.757974387681374E-002                                   
   2.71627980700000      -0.169117478562843       0.323907295888869                                        
  0.772218396600000        1.14585194703804       0.740895139745803                                        
SP   1 1.00                                                                                                
  0.212031497500000        1.00000000000000        1.00000000000000                                        
D    1 1.00                                                                                                
  0.800000000000000        1.00000000000000                                                                
****                                                                                                       
                                                                                                           
  1 0                                                                                                      
Mo1-ECP     3   28                                                                                         
  component            1                                                                                   
    5                                                                                                      
    0   537.966780700    -0.046949200                                                                      
    1   147.898293800   -20.208008400                                                                      
    2    45.735889800  -106.211630200                                                                      
    2    13.291146700   -41.810736800                                                                      
    2     4.705996100    -4.205410300                                                                      
  component            2                                                                                   
    3                                                                                                      
    0   110.299176000     2.806371700                                                                      
    1    23.201464500    44.516201200                                                                      
    2     5.353013100    82.778522700                                                                      
  component            3                                                                                   
    4                                                                                                      
    0    63.290139700     4.942087600                                                                      
    1    23.331530200    25.860497600                                                                      
    2    24.675942300   132.470874200                                                                      
    2     4.649304000    57.314979400                                                                      
  component            4                                                                                   
    5                                                                                                      
    0   104.483997700     3.005459100                                                                      
    1    66.230724500    26.363785100                                                                      
    2    39.128317600   183.389419900                                                                      
    2    13.116443700    98.445306800                                                                      
    2     3.628026300    22.490137700                                                                      
  2 0                                                                                                      
Fe2-ECP     2   10                                                                                         
  component            1                                                                                   
    3                                                                                                      
    1   392.614978700   -10.000000000                                                                      
    2    71.175697900   -63.266751800                                                                      
    2    17.732028100   -10.961333800                                                                      
  component            2                                                                                   
    5                                                                                                      
    0   126.057189500     3.000000000                                                                      
    1   138.126425100    18.172913700                                                                      
    2    54.209885800   339.123116400                                                                      
    2     9.283796600   317.106801200                                                                      