%chk=A0_Frag.chk                                                                 
#P B3LYP/GenECP Guess(Fragment=27) Geom(ModRedundant) SCF(XQC) NoSymm Pop(Always) 
                                                                                  
A0_Frag                                                                          
                                                                                 
-2 2 3 -4 2 5 3 -6 2 5 3 -6 3 6 3 6 2 -5 -2 1 -2 1 -2 1 -2 1 -2 1 -2 1 -2 1 -2 1 -2 1 -4 1 -1 1 1 1 0 1 0 1 0 1 1 1 0 1 0 1 -2 1
 Mo(Fragment=1)    16.03196300   -5.99385600   53.32857900
 Fe(Fragment=2)     8.50731400   -7.45208300   54.69848300
 Fe(Fragment=3)    10.92469800   -5.83508300   55.36877400
 Fe(Fragment=4)    10.76473100   -6.84124300   52.76956900
 Fe(Fragment=5)    11.34897100   -8.45059200   54.95758400
 Fe(Fragment=6)    13.96215000   -7.94235900   54.56697100
 Fe(Fragment=7)    13.58148300   -5.38214300   55.12003700
 Fe(Fragment=8)    13.32033900   -6.22115900   52.45378100
 C(Fragment=27)    17.66510800   -2.37237300   54.27982300
 H(Fragment=27)    17.93790800   -1.43189400   53.79986200
 H(Fragment=27)    16.57763100   -2.38066400   54.42548000
 C(Fragment=27)    18.05641200   -3.56425700   53.37378700
 C(Fragment=27)    19.57968500   -3.54649800   53.07370400
 H(Fragment=27)    20.10902200   -3.80065100   53.99731100
 H(Fragment=27)    19.85281600   -2.51584400   52.82071300
 C(Fragment=27)    19.99652300   -4.48915000   51.94273000
 H(Fragment=27)    19.68368000   -4.08391600   50.97266400
 H(Fragment=27)    19.46842600   -5.43644200   52.04376600
 C(Fragment=27)    17.29315600   -3.63278600   52.02125200
 O(Fragment=27)    16.83399400   -4.82649900   51.73153300
 O(Fragment=27)    17.23871600   -2.65070000   51.29003100
 O(Fragment=27)    17.69782400   -4.77697000   54.09466900
 C(Fragment=18)    12.30711300   -6.78108600   54.13922500
 S(Fragment=9)      9.87547200   -7.55952700   56.60945900
 S(Fragment=15)    15.59080100   -6.62142900   55.67388500
 S(Fragment=10)     9.30453000   -5.26165900   53.70379300
 S(Fragment=12)    12.16378600   -4.24121800   56.41693100
 S(Fragment=13)    13.09966100   -9.83608600   55.40791300
 S(Fragment=16)    14.39132600   -4.24132800   53.24100500
 S(Fragment=11)     9.84794300   -8.95655700   53.17295500
 S(Fragment=17)    14.96099100   -7.88352100   52.38375100
 S(Fragment=14)    11.77459800   -6.30858900   50.75496300
 H(Fragment=24)    13.63517500   -2.19021000   49.04255700
 C(Fragment=24)    13.29792600   -2.02411700   50.05502300
 H(Fragment=24)    13.90909900   -2.63727500   50.72208400
 H(Fragment=24)    13.39494500   -0.96663900   50.32263200
 N(Fragment=24)    11.89277800   -2.46235000   50.07547800
 H(Fragment=24)    11.37804300   -2.36727400   49.21186400
 C(Fragment=24)    11.18717500   -3.00644900   51.07932300
 N(Fragment=24)    11.61045700   -3.01745400   52.33213800
 H(Fragment=24)    11.14715700   -3.64692900   52.99234800
 H(Fragment=24)    12.56841300   -2.77949500   52.56696300
 N(Fragment=24)     9.92838200   -3.45570200   50.79502500
 H(Fragment=24)     9.89821500   -4.04207700   49.96614100
 H(Fragment=24)     9.49478500   -3.95241700   51.58042900
 H(Fragment=22)     7.93719100    0.30580500   59.39965100
 C(Fragment=22)     8.36095500   -1.33526300   60.85623900
 H(Fragment=22)     8.31342900   -1.40442000   61.95007700
 H(Fragment=22)     7.52312200   -1.93614100   60.47704300
 C(Fragment=22)     9.65732700   -1.97514600   60.43800000
 N(Fragment=22)    10.66816700   -2.30726100   61.33731100
 C(Fragment=22)    10.02113600   -2.39412700   59.17912300
 H(Fragment=22)     9.51301600   -2.35591900   58.22785900
 C(Fragment=22)    11.60159200   -2.91214500   60.61293800
 H(Fragment=22)    12.52454700   -3.32950100   60.99116100
 N(Fragment=22)    11.25670900   -2.97996700   59.30758300
 H(Fragment=25)    18.78681200   -4.37904800   57.60966100
 C(Fragment=21)    18.30604700   -7.44156100   50.75314300
 H(Fragment=21)    17.67036200   -6.55533800   50.70417400
 H(Fragment=21)    19.20906600   -7.21939800   50.17131400
 C(Fragment=21)    18.71632400   -7.67411900   52.17545700
 N(Fragment=21)    17.91290100   -7.36296500   53.26559800
 C(Fragment=21)    19.88606500   -8.21697900   52.64334500
 H(Fragment=21)    20.77995700   -8.52555700   52.12604100
 C(Fragment=21)    18.57667500   -7.71442400   54.35353100
 H(Fragment=21)    18.21708700   -7.59361400   55.36408600
 N(Fragment=21)    19.77780200   -8.24437800   54.02102700
 H(Fragment=21)    20.50621800   -8.50613600   54.66954800
 H(Fragment=19)     6.39285200   -9.48833500   56.52589000
 C(Fragment=19)     6.18372600   -9.49740700   55.45092000
 H(Fragment=19)     6.91144300  -10.14659900   54.95521200
 H(Fragment=19)     5.18300500   -9.91186400   55.29039800
 S(Fragment=19)     6.22460500   -7.78615900   54.74528100
 H(Fragment=22)    11.76314200   -3.44281400   58.54705400
 H(Fragment=27)    17.77562000   -4.55035400   55.08183700
 C(Fragment=27)    18.33843000   -2.46679800   55.66696900
 O(Fragment=27)    18.22506100   -3.60372400   56.26132600
 O(Fragment=27)    18.95934500   -1.47984200   56.13006200
 C(Fragment=27)    21.47149700   -4.86572200   51.82506600
 O(Fragment=27)    21.73364400   -5.77602000   50.99563600
 O(Fragment=27)    22.34291800   -4.27531900   52.55729700
 H(Fragment=26)    15.70246600   -0.19963100   61.49123000
 C(Fragment=26)    14.85499200   -0.08299200   60.83200100
 H(Fragment=26)    13.91650200   -0.28673400   61.32609600
 H(Fragment=26)    14.82129100    0.99109000   60.58262600
 C(Fragment=26)    15.05998700   -0.87519400   59.54419700
 H(Fragment=26)    14.32023200   -0.56669600   58.79503600
 H(Fragment=26)    14.88644900   -1.94227200   59.72799700
 C(Fragment=26)    16.46603400   -0.71399800   58.94955800
 H(Fragment=26)    16.75061200    0.34870300   58.91600800
 H(Fragment=26)    16.48387000   -1.05617100   57.90730700
 C(Fragment=26)    17.55763100   -1.46865100   59.71915800
 O(Fragment=26)    17.39237000   -1.93727800   60.84748100
 N(Fragment=26)    18.75671200   -1.54618000   59.07207100
 H(Fragment=26)    19.43002700   -2.16920200   59.49996900
 H(Fragment=26)    18.82440900   -1.43634300   58.05577100
 C(Fragment=23)    10.65199200    0.01000400   53.34600100
 H(Fragment=23)    11.16369900    0.95927200   53.28727000
 H(Fragment=23)     9.58633200    0.18501300   53.35793700
 H(Fragment=23)    10.90966700   -0.57367600   52.45966000
 C(Fragment=23)    11.08923200   -0.68072200   54.65169500
 H(Fragment=23)    10.77506600   -1.73110500   54.62642300
 C(Fragment=23)    10.40605300   -0.02610100   55.86045500
 H(Fragment=23)     9.31390000   -0.10682200   55.78943600
 H(Fragment=23)    10.65882800    1.04184200   55.92602200
 H(Fragment=23)    10.71778500   -0.50218100   56.79659300
 C(Fragment=23)    12.61500900   -0.64239800   54.81575400
 H(Fragment=23)    13.13449900   -1.06415700   53.94709800
 H(Fragment=23)    12.93142200   -1.21984400   55.68993400
 H(Fragment=23)    12.96456900    0.39338800   54.93370800
 H(Fragment=20)    13.45507700  -12.23038900   53.18831300
 C(Fragment=20)    13.91100300  -11.62105500   52.42198900
 H(Fragment=20)    14.71432600  -11.02573900   52.86525300
 H(Fragment=20)    14.27962000  -12.23698900   51.59730500
 N(Fragment=20)    12.80526600  -10.77811600   51.95542500
 H(Fragment=20)    12.11545300  -10.51768100   52.66340300
 C(Fragment=20)    12.75360200  -10.10138900   50.81539900
 N(Fragment=20)    13.85034300  -10.04748900   50.00746500
 H(Fragment=20)    13.73072700   -9.46049000   49.18977000
 H(Fragment=20)    14.71707600   -9.84629800   50.49963800
 N(Fragment=20)    11.60235800   -9.54319100   50.39646100
 H(Fragment=20)    10.83360900   -9.59799400   51.07310500
 H(Fragment=20)    11.69241800   -8.56842700   50.07263900
 H(Fragment=25)    19.21759600   -8.22373300   61.71240600
 C(Fragment=25)    19.59789300   -7.22988000   61.99005100
 H(Fragment=25)    20.63697200   -7.35089700   62.31211100
 C(Fragment=25)    18.81502500   -6.68835600   63.18289200
 O(Fragment=25)    19.35839800   -6.23508800   64.18693500
 C(Fragment=25)    19.49187300   -6.27179800   60.79906500
 H(Fragment=25)    19.84953900   -5.28514400   61.12442400
 H(Fragment=25)    18.43973900   -6.12099000   60.54162600
 C(Fragment=25)    20.22929000   -6.66057500   59.50910600
 H(Fragment=25)    19.83087300   -7.60980400   59.12075800
 H(Fragment=25)    21.30175200   -6.81528000   59.67087200
 C(Fragment=25)    20.08741000   -5.62660800   58.38635600
 O(Fragment=25)    20.97370900   -5.43615800   57.55594600
 O(Fragment=25)    18.92685900   -4.99282700   58.40559800
 N(Fragment=25)    17.46149100   -6.73611900   63.00908700
 H(Fragment=25)    17.10485100   -7.02278700   62.10599100
 C(Fragment=25)    16.53688400   -6.00588400   63.85304300
 H(Fragment=25)    15.77224100   -6.69480800   64.23696900
 H(Fragment=25)    17.11430900   -5.63754000   64.70392600
 C(Fragment=25)    15.85042500   -4.83703800   63.10716200
 H(Fragment=25)    16.60123300   -4.08490200   62.84002700
 H(Fragment=25)    15.15366600   -4.36146700   63.81192000
 C(Fragment=25)    15.10678200   -5.27592600   61.85826900
 C(Fragment=25)    13.87949400   -5.95478900   61.94907400
 H(Fragment=25)    13.44010800   -6.13433300   62.92918400
 C(Fragment=25)    15.64335700   -5.03668600   60.58148200
 H(Fragment=25)    16.56971400   -4.47594100   60.48877700
 C(Fragment=25)    13.21108300   -6.38567800   60.79910300
 H(Fragment=25)    12.26166300   -6.90825300   60.88325900
 C(Fragment=25)    14.97414500   -5.46651100   59.42904700
 H(Fragment=25)    15.39693000   -5.27297800   58.44765900
 C(Fragment=25)    13.75596000   -6.14421700   59.53338200
 H(Fragment=25)    13.23496700   -6.46606000   58.63754700
 H(Fragment=22)     9.00375700    0.70507200   60.77526900
 C(Fragment=22)     8.12697800    0.15608100   60.46500000
 H(Fragment=22)     7.28367200    0.45924300   61.06776800
 H(Fragment=21)    17.80283900   -8.28784200   50.33422500
 H(Fragment=27)    22.74553900   -6.04390100   51.07815200

X 33 F
X 34 F
X 35 F
X 36 F
X 46 F
X 58 F
X 59 F
X 60 F
X 69 F
X 70 F
X 71 F
X 72 F
X 82 F
X 83 F
X 84 F
X 85 F
X 97 F
X 98 F
X 99 F
X 100 F
X 111 F
X 112 F
X 113 F
X 114 F
X 120 F
X 124 F
X 125 F
X 126 F
X 132 F
X 133 F
X 134 F
X 140 F
X 141 F
X 142 F
X 157 F
X 158 F
X 159 F
X 160 F
B 1 2 B                                                                                                                 
                                                                                                                        
Mo   0                                                                                                                  
S    3 1.00                                                                                                             
   2.36100000000000      -0.910672024748705                                                                             
   1.30900000000000        1.14612089888433                                                                             
  0.450000000000000       0.610183433886590                                                                             
S    3 1.00                                                                                                             
   1.30900000000000      -0.185477909063851                                                                             
  0.450000000000000       -1.02303072640616                                                                             
  0.168100000000000        1.67206697867620                                                                             
S    1 1.00                                                                                                             
  4.230000000000000E-002   1.00000000000000                                                                             
P    3 1.00                                                                                                             
   4.89500000000000      -9.082584906395001E-002                                                                        
   1.04400000000000       0.704289865536831                                                                             
  0.387700000000000       0.397317949832461                                                                             
P    1 1.00                                                                                                             
  7.800000000000000E-002   1.00000000000000                                                                             
P    1 1.00                                                                                                             
  2.470000000000000E-002   1.00000000000000                                                                             
D    3 1.00                                                                                                             
   2.99300000000000       5.270401829376609E-002                                                                        
   1.06300000000000       0.500391272702435                                                                             
  0.372100000000000       0.579403056059332                                                                             
D    1 1.00                                                                                                             
  0.117800000000000        1.00000000000000                                                                             
****                                                                                                                    
Fe   0                                                                                                                  
S    3 1.00                                                                                                             
   6.42200000000000      -0.391371139258586                                                                             
   1.82600000000000       0.769344841456132                                                                             
  0.713500000000000       0.493181437696794                                                                             
S    3 1.00                                                                                                             
   1.82600000000000      -6.874575142314664E-002                                                                        
  0.713500000000000      -0.233692561637600                                                                             
  0.102100000000000        1.11324671544387                                                                             
S    1 1.00                                                                                                             
  3.630000000000000E-002   1.00000000000000                                                                             
P    3 1.00                                                                                                             
   19.4800000000000      -4.702823696558029E-002                                                                        
   2.38900000000000       0.624884100527061                                                                             
  0.779500000000000       0.472254207696161                                                                             
P    1 1.00                                                                                                             
  7.400000000000000E-002   1.00000000000000                                                                             
P    1 1.00                                                                                                             
  2.200000000000000E-002   1.00000000000000                                                                             
D    4 1.00                                                                                                             
   37.0800000000000       3.290002242104181E-002                                                                        
   10.1000000000000       0.178741826179523                                                                             
   3.22000000000000       0.448765748357368                                                                             
  0.962800000000000       0.587636124347783                                                                             
D    1 1.00                                                                                                             
  0.226200000000000        1.00000000000000                                                                             
****                                                                                                                    
H    0                                                                                                                  
S    3 1.00                                                                                                             
   18.7311369600000       3.349460433798892E-002                                                                        
   2.82539436500000       0.234726953485906                                                                             
  0.640121692300000       0.813757326151141                                                                             
S    1 1.00                                                                                                             
  0.161277758800000        1.00000000000000                                                                             
****                                                                                                                    
C    0                                                                                                                  
S    6 1.00                                                                                                             
   3047.52488000000       1.834737131704337E-003                                                                        
   457.369518000000       1.403732281303965E-002                                                                        
   103.948685000000       6.884262226394978E-002                                                                        
   29.2101553000000       0.232184443215682                                                                             
   9.28666296000000       0.467941348434683                                                                             
   3.16392696000000       0.362311985336561                                                                             
SP   3 1.00                                                                                                             
   7.86827235000000      -0.119332419774609       6.899906659055292E-002                                                
   1.88128854000000      -0.160854151696183       0.316423960956676                                                     
  0.544249258000000        1.14345643784028       0.744308290898092                                                     
SP   1 1.00                                                                                                             
  0.168714478200000        1.00000000000000        1.00000000000000                                                     
D    1 1.00                                                                                                             
  0.800000000000000        1.00000000000000                                                                             
****                                                                                                                    
O    0                                                                                                                  
S    6 1.00                                                                                                             
   5484.67166000000       1.831074429935815E-003                                                                        
   825.234946000000       1.395017219951100E-002                                                                        
   188.046958000000       6.844507809760077E-002                                                                        
   52.9645000000000       0.232714335991843                                                                             
   16.8975704000000       0.470192897983518                                                                             
   5.79963534000000       0.358520852987433                                                                             
SP   3 1.00                                                                                                             
   15.5396162500000      -0.110777549523202       7.087426823162325E-002                                                
   3.59993358600000      -0.148026262699129       0.339752839151594                                                     
   1.01376175000000        1.13076701534061       0.727158577324449                                                     
SP   1 1.00                                                                                                             
  0.270005822600000        1.00000000000000        1.00000000000000                                                     
D    1 1.00                                                                                                             
  0.800000000000000        1.00000000000000                                                                             
****                                                                                                                    
S    0                                                                                                                  
S    6 1.00                                                                                                             
   21917.1000000000       1.869240849098174E-003                                                                        
   3301.49000000000       1.423030646408259E-002                                                                        
   754.146000000000       6.969623165934613E-002                                                                        
   212.711000000000       0.238487108332197                                                                             
   67.9896000000000       0.483307219541145                                                                             
   23.0515000000000       0.338074153569373                                                                             
SP   6 1.00                                                                                                             
   423.735000000000      -2.376770498762631E-003  4.061009981965474E-003                                                
   100.710000000000      -3.169300665074201E-002  3.068129986374752E-002                                                
   32.1599000000000      -0.113317023779451       0.130451999420676                                                     
   11.8079000000000       5.609001177042625E-002  0.327204998546916                                                     
   4.63110000000000       0.592255124284075       0.452850997988936                                                     
   1.87025000000000       0.455006095482520       0.256041998862944                                                     
SP   3 1.00                                                                                                             
   2.61584000000000      -0.250373114158727      -1.451048954674585E-002                                                
  0.922167000000000       6.695676310130402E-002  0.310262776488888                                                     
  0.341287000000000        1.05450626906756       0.754482456476169                                                     
SP   1 1.00                                                                                                             
  0.117167000000000        1.00000000000000        1.00000000000000                                                     
D    1 1.00                                                                                                             
  0.650000000000000        1.00000000000000                                                                             
****                                                                                                                    
N    0                                                                                                                  
S    6 1.00                                                                                                             
   4173.51146000000       1.834772160318956E-003                                                                        
   627.457911000000       1.399462700243282E-002                                                                        
   142.902093000000       6.858655181192305E-002                                                                        
   40.2343293000000       0.232240873040373                                                                             
   12.8202129000000       0.469069948081543                                                                             
   4.39043701000000       0.360455199062661                                                                             
SP   3 1.00                                                                                                             
   11.6263618600000      -0.114961181702832       6.757974387681374E-002                                                
   2.71627980700000      -0.169117478562843       0.323907295888869                                                     
  0.772218396600000        1.14585194703804       0.740895139745803                                                     
SP   1 1.00                                                                                                             
  0.212031497500000        1.00000000000000        1.00000000000000                                                     
D    1 1.00                                                                                                             
  0.800000000000000        1.00000000000000                                                                             
****                                                                                                                    
                                                                                                                        
  1 0                                                                                                                   
Mo1-ECP     3   28                                                                                                      
  component            1                                                                                                
    5                                                                                                                   
    0   537.966780700    -0.046949200                                                                                   
    1   147.898293800   -20.208008400                                                                                   
    2    45.735889800  -106.211630200                                                                                   
    2    13.291146700   -41.810736800                                                                                   
    2     4.705996100    -4.205410300                                                                                   
  component            2                                                                                                
    3                                                                                                                   
    0   110.299176000     2.806371700                                                                                   
    1    23.201464500    44.516201200                                                                                   
    2     5.353013100    82.778522700                                                                                   
  component            3                                                                                                
    4                                                                                                                   
    0    63.290139700     4.942087600                                                                                   
    1    23.331530200    25.860497600                                                                                   
    2    24.675942300   132.470874200                                                                                   
    2     4.649304000    57.314979400                                                                                   